; SPDX-License-Identifier: MPL-2.0
; Copyright (c) 2026 The RIINA Authors.
; Auto-generated from 02_FORMAL/coq/domains/VerifiedUI.v (68 validations)
; Generated by scripts/generate-full-stack.py
;
; Translation Validation for VerifiedUI
; Layer 9: Verifies compiler backend preserves formal semantics.
; Each assertion checks source IR ≡ target code for a proven property.

(set-logic QF_LIA)
(set-option :produce-models true)

; IR node representation
(declare-sort IRNode 0)
(declare-sort TargetNode 0)

; MIN_VISIBLE_OPACITY: source semantics (matches Coq)
(declare-fun source_MIN_VISIBLE_OPACITY () Bool)
(declare-fun target_MIN_VISIBLE_OPACITY () Bool)
(assert (= source_MIN_VISIBLE_OPACITY target_MIN_VISIBLE_OPACITY))

; point_in_rect: source semantics (matches Coq)
(declare-fun source_point_in_rect () Bool)
(declare-fun target_point_in_rect () Bool)
(assert (= source_point_in_rect target_point_in_rect))

; is_visible: source semantics (matches Coq)
(declare-fun source_is_visible () Bool)
(declare-fun target_is_visible () Bool)
(assert (= source_is_visible target_is_visible))

; is_interactive: source semantics (matches Coq)
(declare-fun source_is_interactive () Bool)
(declare-fun target_is_interactive () Bool)
(assert (= source_is_interactive target_is_interactive))

; element_well_formed: source semantics (matches Coq)
(declare-fun source_element_well_formed () Bool)
(declare-fun target_element_well_formed () Bool)
(assert (= source_element_well_formed target_element_well_formed))

; verified_ui_state: source semantics (matches Coq)
(declare-fun source_verified_ui_state () Bool)
(declare-fun target_verified_ui_state () Bool)
(assert (= source_verified_ui_state target_verified_ui_state))

; origin_eq: source semantics (matches Coq)
(declare-fun source_origin_eq () Bool)
(declare-fun target_origin_eq () Bool)
(assert (= source_origin_eq target_origin_eq))

; frame_policy_allows: source semantics (matches Coq)
(declare-fun source_frame_policy_allows () Bool)
(declare-fun target_frame_policy_allows () Bool)
(assert (= source_frame_policy_allows target_frame_policy_allows))

; frame_well_formed: source semantics (matches Coq)
(declare-fun source_frame_well_formed () Bool)
(declare-fun target_frame_well_formed () Bool)
(assert (= source_frame_well_formed target_frame_well_formed))

; char_is_dangerous: source semantics (matches Coq)
(declare-fun source_char_is_dangerous () Bool)
(declare-fun target_char_is_dangerous () Bool)
(assert (= source_char_is_dangerous target_char_is_dangerous))

; char_is_sql_meta: source semantics (matches Coq)
(declare-fun source_char_is_sql_meta () Bool)
(declare-fun target_char_is_sql_meta () Bool)
(assert (= source_char_is_sql_meta target_char_is_sql_meta))

; contains_script_tag: source semantics (matches Coq)
(declare-fun source_contains_script_tag () Bool)
(declare-fun target_contains_script_tag () Bool)
(assert (= source_contains_script_tag target_contains_script_tag))

; sanitize_input: source semantics (matches Coq)
(declare-fun source_sanitize_input () Bool)
(declare-fun target_sanitize_input () Bool)
(assert (= source_sanitize_input target_sanitize_input))

; input_is_safe: source semantics (matches Coq)
(declare-fun source_input_is_safe () Bool)
(declare-fun target_input_is_safe () Bool)
(assert (= source_input_is_safe target_input_is_safe))

; focus_next: source semantics (matches Coq)
(declare-fun source_focus_next () Bool)
(declare-fun target_focus_next () Bool)
(assert (= source_focus_next target_focus_next))

; focus_valid: source semantics (matches Coq)
(declare-fun source_focus_valid () Bool)
(declare-fun target_focus_valid () Bool)
(assert (= source_focus_valid target_focus_valid))

; luminance: source semantics (matches Coq)
(declare-fun source_luminance () Bool)
(declare-fun target_luminance () Bool)
(assert (= source_luminance target_luminance))

; luminance_max: source semantics (matches Coq)
(declare-fun source_luminance_max () Bool)
(declare-fun target_luminance_max () Bool)
(assert (= source_luminance_max target_luminance_max))

; luminance_min: source semantics (matches Coq)
(declare-fun source_luminance_min () Bool)
(declare-fun target_luminance_min () Bool)
(assert (= source_luminance_min target_luminance_min))

; contrast_offset: source semantics (matches Coq)
(declare-fun source_contrast_offset () Bool)
(declare-fun target_contrast_offset () Bool)
(assert (= source_contrast_offset target_contrast_offset))

; contrast_meets_ratio: source semantics (matches Coq)
(declare-fun source_contrast_meets_ratio () Bool)
(declare-fun target_contrast_meets_ratio () Bool)
(assert (= source_contrast_meets_ratio target_contrast_meets_ratio))

; wcag_aa: source semantics (matches Coq)
(declare-fun source_wcag_aa () Bool)
(declare-fun target_wcag_aa () Bool)
(assert (= source_wcag_aa target_wcag_aa))

; wcag_aaa: source semantics (matches Coq)
(declare-fun source_wcag_aaa () Bool)
(declare-fun target_wcag_aaa () Bool)
(assert (= source_wcag_aaa target_wcag_aaa))

; wcag_large_text: source semantics (matches Coq)
(declare-fun source_wcag_large_text () Bool)
(declare-fun target_wcag_large_text () Bool)
(assert (= source_wcag_large_text target_wcag_large_text))

; black: source semantics (matches Coq)
(declare-fun source_black () Bool)
(declare-fun target_black () Bool)
(assert (= source_black target_black))

; white: source semantics (matches Coq)
(declare-fun source_white () Bool)
(declare-fun target_white () Bool)
(assert (= source_white target_white))

; mobile_max: source semantics (matches Coq)
(declare-fun source_mobile_max () Bool)
(declare-fun target_mobile_max () Bool)
(assert (= source_mobile_max target_mobile_max))

; desktop_min: source semantics (matches Coq)
(declare-fun source_desktop_min () Bool)
(declare-fun target_desktop_min () Bool)
(assert (= source_desktop_min target_desktop_min))

; breakpoint_eq: source semantics (matches Coq)
(declare-fun source_breakpoint_eq () Bool)
(declare-fun target_breakpoint_eq () Bool)
(assert (= source_breakpoint_eq target_breakpoint_eq))

; classify_breakpoint: source semantics (matches Coq)
(declare-fun source_classify_breakpoint () Bool)
(declare-fun target_classify_breakpoint () Bool)
(assert (= source_classify_breakpoint target_classify_breakpoint))

; severity_level: source semantics (matches Coq)
(declare-fun source_severity_level () Bool)
(declare-fun target_severity_level () Bool)
(assert (= source_severity_level target_severity_level))

; required_style: source semantics (matches Coq)
(declare-fun source_required_style () Bool)
(declare-fun target_required_style () Bool)
(assert (= source_required_style target_required_style))

; filter_preserves_property: translation preserves property (matches Coq: Lemma)
(declare-fun source_filter_preserves_property () Bool)
(declare-fun target_filter_preserves_property () Bool)
(assert (= source_filter_preserves_property target_filter_preserves_property))

; forall_filter_subset: translation preserves property (matches Coq: Lemma)
(declare-fun source_forall_filter_subset () Bool)
(declare-fun target_forall_filter_subset () Bool)
(assert (= source_forall_filter_subset target_forall_filter_subset))

; find_topmost_in_list: translation preserves property (matches Coq: Lemma)
(declare-fun source_find_topmost_in_list () Bool)
(declare-fun target_find_topmost_in_list () Bool)
(assert (= source_find_topmost_in_list target_find_topmost_in_list))

; is_visible_implies_visible: translation preserves property (matches Coq: Lemma)
(declare-fun source_is_visible_implies_visible () Bool)
(declare-fun target_is_visible_implies_visible () Bool)
(assert (= source_is_visible_implies_visible target_is_visible_implies_visible))

; is_visible_implies_opacity: translation preserves property (matches Coq: Lemma)
(declare-fun source_is_visible_implies_opacity () Bool)
(declare-fun target_is_visible_implies_opacity () Bool)
(assert (= source_is_visible_implies_opacity target_is_visible_implies_opacity))

; UX_001_01_wysiwyk: translation preserves property (matches Coq: Theorem)
(declare-fun source_UX_001_01_wysiwyk () Bool)
(declare-fun target_UX_001_01_wysiwyk () Bool)
(assert (= source_UX_001_01_wysiwyk target_UX_001_01_wysiwyk))

; find_topmost_geq_current: translation preserves property (matches Coq: Lemma)
(declare-fun source_find_topmost_geq_current () Bool)
(declare-fun target_find_topmost_geq_current () Bool)
(assert (= source_find_topmost_geq_current target_find_topmost_geq_current))

; find_topmost_max_z: translation preserves property (matches Coq: Lemma)
(declare-fun source_find_topmost_max_z () Bool)
(declare-fun target_find_topmost_max_z () Bool)
(assert (= source_find_topmost_max_z target_find_topmost_max_z))

; UX_001_02_z_order_integrity: translation preserves property (matches Coq: Theorem)
(declare-fun source_UX_001_02_z_order_integrity () Bool)
(declare-fun target_UX_001_02_z_order_integrity () Bool)
(assert (= source_UX_001_02_z_order_integrity target_UX_001_02_z_order_integrity))

; UX_001_03_no_invisible_overlay: translation preserves property (matches Coq: Theorem)
(declare-fun source_UX_001_03_no_invisible_overlay () Bool)
(declare-fun target_UX_001_03_no_invisible_overlay () Bool)
(assert (= source_UX_001_03_no_invisible_overlay target_UX_001_03_no_invisible_overlay))

; UX_001_04_visual_consistency: translation preserves property (matches Coq: Theorem)
(declare-fun source_UX_001_04_visual_consistency () Bool)
(declare-fun target_UX_001_04_visual_consistency () Bool)
(assert (= source_UX_001_04_visual_consistency target_UX_001_04_visual_consistency))

; UX_001_05_layout_deterministic: translation preserves property (matches Coq: Theorem)
(declare-fun source_UX_001_05_layout_deterministic () Bool)
(declare-fun target_UX_001_05_layout_deterministic () Bool)
(assert (= source_UX_001_05_layout_deterministic target_UX_001_05_layout_deterministic))

; UX_001_06_origin_indicator_correct: translation preserves property (matches Coq: Theorem)
(declare-fun source_UX_001_06_origin_indicator_correct () Bool)
(declare-fun target_UX_001_06_origin_indicator_correct () Bool)
(assert (= source_UX_001_06_origin_indicator_correct target_UX_001_06_origin_indicator_correct))

; UX_001_07_cert_indicator_correct: translation preserves property (matches Coq: Theorem)
(declare-fun source_UX_001_07_cert_indicator_correct () Bool)
(declare-fun target_UX_001_07_cert_indicator_correct () Bool)
(assert (= source_UX_001_07_cert_indicator_correct target_UX_001_07_cert_indicator_correct))

; UX_001_08_no_url_spoof: translation preserves property (matches Coq: Theorem)
(declare-fun source_UX_001_08_no_url_spoof () Bool)
(declare-fun target_UX_001_08_no_url_spoof () Bool)
(assert (= source_UX_001_08_no_url_spoof target_UX_001_08_no_url_spoof))

; UX_001_09_frame_ancestry_correct: translation preserves property (matches Coq: Theorem)
(declare-fun source_UX_001_09_frame_ancestry_correct () Bool)
(declare-fun target_UX_001_09_frame_ancestry_correct () Bool)
(assert (= source_UX_001_09_frame_ancestry_correct target_UX_001_09_frame_ancestry_correct))

; UX_001_10_tab_integrity: translation preserves property (matches Coq: Theorem)
(declare-fun source_UX_001_10_tab_integrity () Bool)
(declare-fun target_UX_001_10_tab_integrity () Bool)
(assert (= source_UX_001_10_tab_integrity target_UX_001_10_tab_integrity))

; UX_001_11_consent_explicit: translation preserves property (matches Coq: Theorem)
(declare-fun source_UX_001_11_consent_explicit () Bool)
(declare-fun target_UX_001_11_consent_explicit () Bool)
(assert (= source_UX_001_11_consent_explicit target_UX_001_11_consent_explicit))

; UX_001_12_consent_revocable: translation preserves property (matches Coq: Theorem)
(declare-fun source_UX_001_12_consent_revocable () Bool)
(declare-fun target_UX_001_12_consent_revocable () Bool)
(assert (= source_UX_001_12_consent_revocable target_UX_001_12_consent_revocable))

; UX_001_13_no_confirmshaming: translation preserves property (matches Coq: Theorem)
(declare-fun source_UX_001_13_no_confirmshaming () Bool)
(declare-fun target_UX_001_13_no_confirmshaming () Bool)
(assert (= source_UX_001_13_no_confirmshaming target_UX_001_13_no_confirmshaming))

; UX_001_14_no_hidden_costs: translation preserves property (matches Coq: Theorem)
(declare-fun source_UX_001_14_no_hidden_costs () Bool)
(declare-fun target_UX_001_14_no_hidden_costs () Bool)
(assert (= source_UX_001_14_no_hidden_costs target_UX_001_14_no_hidden_costs))

; UX_001_15_equal_option_presentation: translation preserves property (matches Coq: Theorem)
(declare-fun source_UX_001_15_equal_option_presentation () Bool)
(declare-fun target_UX_001_15_equal_option_presentation () Bool)
(assert (= source_UX_001_15_equal_option_presentation target_UX_001_15_equal_option_presentation))

; firstn_length_le: translation preserves property (matches Coq: Lemma)
(declare-fun source_firstn_length_le () Bool)
(declare-fun target_firstn_length_le () Bool)
(assert (= source_firstn_length_le target_firstn_length_le))

; filter_all_true: translation preserves property (matches Coq: Lemma)
(declare-fun source_filter_all_true () Bool)
(declare-fun target_filter_all_true () Bool)
(assert (= source_filter_all_true target_filter_all_true))

; firstn_forall: translation preserves property (matches Coq: Lemma)
(declare-fun source_firstn_forall () Bool)
(declare-fun target_firstn_forall () Bool)
(assert (= source_firstn_forall target_firstn_forall))

; filter_length_le: translation preserves property (matches Coq: Lemma)
(declare-fun source_filter_length_le () Bool)
(declare-fun target_filter_length_le () Bool)
(assert (= source_filter_length_le target_filter_length_le))

; firstn_length_le2: translation preserves property (matches Coq: Lemma)
(declare-fun source_firstn_length_le2 () Bool)
(declare-fun target_firstn_length_le2 () Bool)
(assert (= source_firstn_length_le2 target_firstn_length_le2))

; UX_002_01_input_length_bounded: translation preserves property (matches Coq: Theorem)
(declare-fun source_UX_002_01_input_length_bounded () Bool)
(declare-fun target_UX_002_01_input_length_bounded () Bool)
(assert (= source_UX_002_01_input_length_bounded target_UX_002_01_input_length_bounded))

; UX_002_02_xss_injection_impossible: translation preserves property (matches Coq: Theorem)
(declare-fun source_UX_002_02_xss_injection_impossible () Bool)
(declare-fun target_UX_002_02_xss_injection_impossible () Bool)
(assert (= source_UX_002_02_xss_injection_impossible target_UX_002_02_xss_injection_impossible))

; UX_002_03_sql_injection_impossible: translation preserves property (matches Coq: Theorem)
(declare-fun source_UX_002_03_sql_injection_impossible () Bool)
(declare-fun target_UX_002_03_sql_injection_impossible () Bool)
(assert (= source_UX_002_03_sql_injection_impossible target_UX_002_03_sql_injection_impossible))

; filter_id_forall: translation preserves property (matches Coq: Lemma)
(declare-fun source_filter_id_forall () Bool)
(declare-fun target_filter_id_forall () Bool)
(assert (= source_filter_id_forall target_filter_id_forall))

; firstn_all_le: translation preserves property (matches Coq: Lemma)
(declare-fun source_firstn_all_le () Bool)
(declare-fun target_firstn_all_le () Bool)
(assert (= source_firstn_all_le target_firstn_all_le))

; UX_002_04_input_idempotent: translation preserves property (matches Coq: Theorem)
(declare-fun source_UX_002_04_input_idempotent () Bool)
(declare-fun target_UX_002_04_input_idempotent () Bool)
(assert (= source_UX_002_04_input_idempotent target_UX_002_04_input_idempotent))

; UX_002_05_empty_input_safe: translation preserves property (matches Coq: Theorem)
(declare-fun source_UX_002_05_empty_input_safe () Bool)
(declare-fun target_UX_002_05_empty_input_safe () Bool)
(assert (= source_UX_002_05_empty_input_safe target_UX_002_05_empty_input_safe))

; UX_002_06_sanitize_preserves_safe: translation preserves property (matches Coq: Theorem)
(declare-fun source_UX_002_06_sanitize_preserves_safe () Bool)
(declare-fun target_UX_002_06_sanitize_preserves_safe () Bool)
(assert (= source_UX_002_06_sanitize_preserves_safe target_UX_002_06_sanitize_preserves_safe))

; UX_002_07_sanitized_flag_set: translation preserves property (matches Coq: Theorem)
(declare-fun source_UX_002_07_sanitized_flag_set () Bool)
(declare-fun target_UX_002_07_sanitized_flag_set () Bool)
(assert (= source_UX_002_07_sanitized_flag_set target_UX_002_07_sanitized_flag_set))

; UX_002_08_sanitize_never_increases: translation preserves property (matches Coq: Theorem)
(declare-fun source_UX_002_08_sanitize_never_increases () Bool)
(declare-fun target_UX_002_08_sanitize_never_increases () Bool)
(assert (= source_UX_002_08_sanitize_never_increases target_UX_002_08_sanitize_never_increases))

; UX_003_01_focus_always_visible: translation preserves property (matches Coq: Theorem)
(declare-fun source_UX_003_01_focus_always_visible () Bool)
(declare-fun target_UX_003_01_focus_always_visible () Bool)
(assert (= source_UX_003_01_focus_always_visible target_UX_003_01_focus_always_visible))

; UX_003_02_focus_order_deterministic: translation preserves property (matches Coq: Theorem)
(declare-fun source_UX_003_02_focus_order_deterministic () Bool)
(declare-fun target_UX_003_02_focus_order_deterministic () Bool)
(assert (= source_UX_003_02_focus_order_deterministic target_UX_003_02_focus_order_deterministic))

; UX_003_03_focus_wraps_around: translation preserves property (matches Coq: Theorem)
(declare-fun source_UX_003_03_focus_wraps_around () Bool)
(declare-fun target_UX_003_03_focus_wraps_around () Bool)
(assert (= source_UX_003_03_focus_wraps_around target_UX_003_03_focus_wraps_around))

; UX_003_04_focus_trap_in_modal: translation preserves property (matches Coq: Theorem)
(declare-fun source_UX_003_04_focus_trap_in_modal () Bool)
(declare-fun target_UX_003_04_focus_trap_in_modal () Bool)
(assert (= source_UX_003_04_focus_trap_in_modal target_UX_003_04_focus_trap_in_modal))

; UX_003_05_no_focus_outside_bounds: translation preserves property (matches Coq: Theorem)
(declare-fun source_UX_003_05_no_focus_outside_bounds () Bool)
(declare-fun target_UX_003_05_no_focus_outside_bounds () Bool)
(assert (= source_UX_003_05_no_focus_outside_bounds target_UX_003_05_no_focus_outside_bounds))

; UX_003_06_focus_moves_forward: translation preserves property (matches Coq: Theorem)
(declare-fun source_UX_003_06_focus_moves_forward () Bool)
(declare-fun target_UX_003_06_focus_moves_forward () Bool)
(assert (= source_UX_003_06_focus_moves_forward target_UX_003_06_focus_moves_forward))

; UX_004_01_wcag_aa_contrast: translation preserves property (matches Coq: Theorem)
(declare-fun source_UX_004_01_wcag_aa_contrast () Bool)
(declare-fun target_UX_004_01_wcag_aa_contrast () Bool)
(assert (= source_UX_004_01_wcag_aa_contrast target_UX_004_01_wcag_aa_contrast))

; UX_004_02_wcag_aaa_contrast: translation preserves property (matches Coq: Theorem)
(declare-fun source_UX_004_02_wcag_aaa_contrast () Bool)
(declare-fun target_UX_004_02_wcag_aaa_contrast () Bool)
(assert (= source_UX_004_02_wcag_aaa_contrast target_UX_004_02_wcag_aaa_contrast))

; UX_004_03_large_text_relaxed: translation preserves property (matches Coq: Theorem)
(declare-fun source_UX_004_03_large_text_relaxed () Bool)
(declare-fun target_UX_004_03_large_text_relaxed () Bool)
(assert (= source_UX_004_03_large_text_relaxed target_UX_004_03_large_text_relaxed))

; UX_004_04_contrast_symmetric: translation preserves property (matches Coq: Theorem)
(declare-fun source_UX_004_04_contrast_symmetric () Bool)
(declare-fun target_UX_004_04_contrast_symmetric () Bool)
(assert (= source_UX_004_04_contrast_symmetric target_UX_004_04_contrast_symmetric))

; UX_004_05_same_color_min_contrast: translation preserves property (matches Coq: Theorem)
(declare-fun source_UX_004_05_same_color_min_contrast () Bool)
(declare-fun target_UX_004_05_same_color_min_contrast () Bool)
(assert (= source_UX_004_05_same_color_min_contrast target_UX_004_05_same_color_min_contrast))

; UX_004_06_black_white_max: translation preserves property (matches Coq: Theorem)
(declare-fun source_UX_004_06_black_white_max () Bool)
(declare-fun target_UX_004_06_black_white_max () Bool)
(assert (= source_UX_004_06_black_white_max target_UX_004_06_black_white_max))

; UX_004_07_aa_implies_large_text: translation preserves property (matches Coq: Theorem)
(declare-fun source_UX_004_07_aa_implies_large_text () Bool)
(declare-fun target_UX_004_07_aa_implies_large_text () Bool)
(assert (= source_UX_004_07_aa_implies_large_text target_UX_004_07_aa_implies_large_text))

; UX_005_01_breakpoint_deterministic: translation preserves property (matches Coq: Theorem)
(declare-fun source_UX_005_01_breakpoint_deterministic () Bool)
(declare-fun target_UX_005_01_breakpoint_deterministic () Bool)
(assert (= source_UX_005_01_breakpoint_deterministic target_UX_005_01_breakpoint_deterministic))

; UX_005_02_elements_fit_viewport: translation preserves property (matches Coq: Theorem)
(declare-fun source_UX_005_02_elements_fit_viewport () Bool)
(declare-fun target_UX_005_02_elements_fit_viewport () Bool)
(assert (= source_UX_005_02_elements_fit_viewport target_UX_005_02_elements_fit_viewport))

; UX_005_03_no_horizontal_scroll: translation preserves property (matches Coq: Theorem)
(declare-fun source_UX_005_03_no_horizontal_scroll () Bool)
(declare-fun target_UX_005_03_no_horizontal_scroll () Bool)
(assert (= source_UX_005_03_no_horizontal_scroll target_UX_005_03_no_horizontal_scroll))

; UX_005_04_touch_targets_minimum_size: translation preserves property (matches Coq: Theorem)
(declare-fun source_UX_005_04_touch_targets_minimum_size () Bool)
(declare-fun target_UX_005_04_touch_targets_minimum_size () Bool)
(assert (= source_UX_005_04_touch_targets_minimum_size target_UX_005_04_touch_targets_minimum_size))

; UX_005_05_text_readable_at_breakpoint: translation preserves property (matches Coq: Theorem)
(declare-fun source_UX_005_05_text_readable_at_breakpoint () Bool)
(declare-fun target_UX_005_05_text_readable_at_breakpoint () Bool)
(assert (= source_UX_005_05_text_readable_at_breakpoint target_UX_005_05_text_readable_at_breakpoint))

; UX_005_06_layout_stable_on_resize: translation preserves property (matches Coq: Theorem)
(declare-fun source_UX_005_06_layout_stable_on_resize () Bool)
(declare-fun target_UX_005_06_layout_stable_on_resize () Bool)
(assert (= source_UX_005_06_layout_stable_on_resize target_UX_005_06_layout_stable_on_resize))

; UX_005_07_breakpoint_boundaries: translation preserves property (matches Coq: Theorem)
(declare-fun source_UX_005_07_breakpoint_boundaries () Bool)
(declare-fun target_UX_005_07_breakpoint_boundaries () Bool)
(assert (= source_UX_005_07_breakpoint_boundaries target_UX_005_07_breakpoint_boundaries))

; UX_006_01_error_always_visible: translation preserves property (matches Coq: Theorem)
(declare-fun source_UX_006_01_error_always_visible () Bool)
(declare-fun target_UX_006_01_error_always_visible () Bool)
(assert (= source_UX_006_01_error_always_visible target_UX_006_01_error_always_visible))

; UX_006_02_error_persists_until_acknowledged: translation preserves property (matches Coq: Theorem)
(declare-fun source_UX_006_02_error_persists_until_acknowledged () Bool)
(declare-fun target_UX_006_02_error_persists_until_acknowledged () Bool)
(assert (= source_UX_006_02_error_persists_until_acknowledged target_UX_006_02_error_persists_until_acknowledged))

; UX_006_03_error_message_matches_severity: translation preserves property (matches Coq: Theorem)
(declare-fun source_UX_006_03_error_message_matches_severity () Bool)
(declare-fun target_UX_006_03_error_message_matches_severity () Bool)
(assert (= source_UX_006_03_error_message_matches_severity target_UX_006_03_error_message_matches_severity))

; UX_006_04_no_silent_failure: translation preserves property (matches Coq: Theorem)
(declare-fun source_UX_006_04_no_silent_failure () Bool)
(declare-fun target_UX_006_04_no_silent_failure () Bool)
(assert (= source_UX_006_04_no_silent_failure target_UX_006_04_no_silent_failure))

; UX_006_05_error_recoverable: translation preserves property (matches Coq: Theorem)
(declare-fun source_UX_006_05_error_recoverable () Bool)
(declare-fun target_UX_006_05_error_recoverable () Bool)
(assert (= source_UX_006_05_error_recoverable target_UX_006_05_error_recoverable))

; UX_006_06_error_message_honest: translation preserves property (matches Coq: Theorem)
(declare-fun source_UX_006_06_error_message_honest () Bool)
(declare-fun target_UX_006_06_error_message_honest () Bool)
(assert (= source_UX_006_06_error_message_honest target_UX_006_06_error_message_honest))

; UX_006_07_warning_style_for_errors: translation preserves property (matches Coq: Theorem)
(declare-fun source_UX_006_07_warning_style_for_errors () Bool)
(declare-fun target_UX_006_07_warning_style_for_errors () Bool)
(assert (= source_UX_006_07_warning_style_for_errors target_UX_006_07_warning_style_for_errors))

; UX_006_08_severity_level_monotonic: translation preserves property (matches Coq: Theorem)
(declare-fun source_UX_006_08_severity_level_monotonic () Bool)
(declare-fun target_UX_006_08_severity_level_monotonic () Bool)
(assert (= source_UX_006_08_severity_level_monotonic target_UX_006_08_severity_level_monotonic))

; UX_006_09_info_style_normal: translation preserves property (matches Coq: Theorem)
(declare-fun source_UX_006_09_info_style_normal () Bool)
(declare-fun target_UX_006_09_info_style_normal () Bool)
(assert (= source_UX_006_09_info_style_normal target_UX_006_09_info_style_normal))

; UX_007_01_sanitized_input_in_verified_ui: translation preserves property (matches Coq: Theorem)
(declare-fun source_UX_007_01_sanitized_input_in_verified_ui () Bool)
(declare-fun target_UX_007_01_sanitized_input_in_verified_ui () Bool)
(assert (= source_UX_007_01_sanitized_input_in_verified_ui target_UX_007_01_sanitized_input_in_verified_ui))

; UX_007_02_accessible_error_in_responsive: translation preserves property (matches Coq: Theorem)
(declare-fun source_UX_007_02_accessible_error_in_responsive () Bool)
(declare-fun target_UX_007_02_accessible_error_in_responsive () Bool)
(assert (= source_UX_007_02_accessible_error_in_responsive target_UX_007_02_accessible_error_in_responsive))

; Verify all translation validations are satisfiable
(check-sat)
(exit)
